0 105 115
1 113 120
2 117 124
3 116 126
4 98 127
5 102 126
6 106 122
7 78 120
8 103 117
9 110 115
10 85 115
11 92 116
12 99 111
13 52 109
14 96 103
15 77 98
16 68 96
17 72 93
18 74 91
19 68 90
20 65 90
21 79 87
22 58 83
23 67 79
24 55 76
25 24 74
26 53 72
27 56 71
28 60 71
29 62 67
30 41 64
31 64 63
32 33 52
33 39 49
34 30 49
35 37 46
36 35 45
37 34 47
38 39 44
39 23 43
40 26 40
41 19 40
42 20 35
43 19 34
44 22 28
45 8 25
46 21 25
47 11 24
48 16 23
49 22 21
50 9 13
51 13 15
52 15 16
53 15 14
54 11 12
55 8 12
56 3 11
57 9 11
58 12 14
59 7 10
60 7 9
61 7 9
62 6 6
63 6 5
64 6 5
65 2 1
66 6 5
67 6 5
68 2 5
69 4 4
70 1 2
71 2 3
72 3 4
73 3 2
74 1 0
75 2 2
76 1 1
77 1 1

